c Created with the Wolfram Language : www.wolfram.com
c 
p edge 100 245
e 3 5
e 1 7
e 4 10
e 8 10
e 6 12
e 4 16
e 3 17
e 5 18
e 5 19
e 13 19
e 12 21
e 5 22
e 8 23
e 21 23
e 13 24
e 5 25
e 23 26
e 10 27
e 12 27
e 13 27
e 14 27
e 4 28
e 14 28
e 15 28
e 5 29
e 18 29
e 19 30
e 28 30
e 6 31
e 11 31
e 23 31
e 10 32
e 15 32
e 7 33
e 21 33
e 25 34
e 26 34
e 30 34
e 2 36
e 10 36
e 14 36
e 16 36
e 32 37
e 14 38
e 16 38
e 18 38
e 34 38
e 30 39
e 31 39
e 4 40
e 20 40
e 15 42
e 31 42
e 9 44
e 28 44
e 19 45
e 22 45
e 27 45
e 36 45
e 40 46
e 6 47
e 17 47
e 34 47
e 44 47
e 32 48
e 17 49
e 47 49
e 17 50
e 22 50
e 45 51
e 25 52
e 30 52
e 11 53
e 47 53
e 1 54
e 32 54
e 33 54
e 50 54
e 5 55
e 54 55
e 33 56
e 43 56
e 51 56
e 21 57
e 31 57
e 5 58
e 14 58
e 22 58
e 31 58
e 40 58
e 17 59
e 28 59
e 41 59
e 52 59
e 53 59
e 55 59
e 19 60
e 46 61
e 9 62
e 21 62
e 21 63
e 24 63
e 43 63
e 44 63
e 12 64
e 22 64
e 31 64
e 32 64
e 57 64
e 11 65
e 26 65
e 37 65
e 52 65
e 35 66
e 32 67
e 57 67
e 7 68
e 8 68
e 59 68
e 62 68
e 65 68
e 12 69
e 18 69
e 56 69
e 2 70
e 28 70
e 69 70
e 9 71
e 13 71
e 49 71
e 59 71
e 46 72
e 51 73
e 24 74
e 33 74
e 40 74
e 17 75
e 27 75
e 19 76
e 48 76
e 60 77
e 67 77
e 9 78
e 61 78
e 75 78
e 28 79
e 61 79
e 69 79
e 70 79
e 5 80
e 45 80
e 28 81
e 79 81
e 2 82
e 24 82
e 48 82
e 49 82
e 78 82
e 4 83
e 16 83
e 74 83
e 75 83
e 1 84
e 21 84
e 23 84
e 63 84
e 74 85
e 82 85
e 18 86
e 51 86
e 64 86
e 74 86
e 82 86
e 5 87
e 11 87
e 43 87
e 61 87
e 82 87
e 19 88
e 20 88
e 55 88
e 68 88
e 69 88
e 84 88
e 85 88
e 8 89
e 14 89
e 20 89
e 31 89
e 42 89
e 23 90
e 27 90
e 28 90
e 33 90
e 38 90
e 55 90
e 5 91
e 33 91
e 54 91
e 79 91
e 33 92
e 47 92
e 57 92
e 86 92
e 1 93
e 22 93
e 69 93
e 30 94
e 32 94
e 67 94
e 73 94
e 83 94
e 4 95
e 17 95
e 30 95
e 35 95
e 68 95
e 69 95
e 77 95
e 83 95
e 88 95
e 20 96
e 43 96
e 50 96
e 51 96
e 61 96
e 94 96
e 9 97
e 34 97
e 16 98
e 26 98
e 29 98
e 66 98
e 13 99
e 40 99
e 41 99
e 45 99
e 53 99
e 83 99
e 4 100
e 24 100
e 46 100
e 53 100
e 84 100
e 99 100
